Route #1: 1 111 113 106 28 45 31 115 10 89 83 22 53 51 1
Route #2 1 16 33 90 18 67 17 105 42 92 3 1
Route #3 1 24 66 82 12 32 57 37 71 70 103 14 1
Route #4 1 35 64 8 2 75 86 1
Route #5 1 38 72 77 56 81 98 39 78 59 114 13 46 97 23 52 26 1
Route #6 1 6 20 109 7 61 49 1
Route #7 1 87 88 74 107 4 94 19 110 48 80 50 100 36 1
Route #8 1 108 96 60 43 11 1
Route #9 1 30 54 79 29 101 58 93 5 102 21 95 63 55 1
Route #10 1 112 47 65 27 73 104 62 34 25 99 91 40 68 41 44 69 15 9 84 76 85 1
Cost: 13614